c This is an instance of the exact track of PACE 2020 Challenge, see https://pacechallenge.org/2020/ 
c TYPE: biology 
c ORIGIN: http://networkrepository.com/ 
c DESCRIPTION: ENZYMES is a dataset of protein tertiary structures obtained from (Borgwardt et al., 2005)  consisting of 600 enzymes from the BRENDA enzyme database (Schomburg et al., 2004). Refernces: K. M. Borgwardt, C. S. Ong, S. Schoenauer, S. V. N. Vishwanathan, A. J. Smola, and H. P. Kriegel. Protein function prediction via graph kernels. Bioinformatics, 21(Suppl 1):i47–i56, Jun 2005. I. Schomburg, A. Chang, C. Ebeling, M. Gremse, C. Heldt, G. Huhn, and D. Schomburg. Brenda, the enzyme database: updates and major new developments. Nucleic Acids Research, 32D:431–433, 2005 
p tdp 95 121
1 2
1 5
1 6
1 7
2 3
2 4
3 6
4 44
5 47
5 48
5 49
6 47
6 73
7 9
8 9
8 10
8 11
8 12
10 13
10 14
11 52
11 51
12 79
12 78
13 15
13 16
14 15
14 54
14 55
15 52
15 53
16 19
16 93
17 18
17 20
18 19
20 56
20 57
21 22
21 26
23 24
23 27
23 28
24 25
24 26
25 27
27 73
28 30
29 30
29 32
30 31
31 66
31 36
31 67
32 33
32 34
32 35
33 36
33 37
33 38
34 36
34 68
35 37
35 93
37 92
38 42
38 93
39 40
39 43
40 41
40 42
41 69
41 43
43 56
43 81
43 94
44 45
45 46
46 49
47 50
47 51
48 50
53 54
53 80
54 79
55 57
55 93
58 59
58 63
60 61
60 64
60 65
61 62
61 63
62 64
65 66
67 92
67 91
68 70
69 70
71 72
71 76
73 74
73 77
73 78
74 75
74 76
75 77
80 83
81 82
82 83
84 85
84 89
86 87
86 90
86 91
87 88
87 89
88 90
93 95
94 95
